(set-info :smt-lib-version 2.6)
(set-logic UF)
(set-info :source |
Generated by: Andrew Reynolds
Generated on: 2017-04-28
Generator: Sledgehammer, converted to v2.6 by CVC4
Application: Verfication goals in Isabelle
Target solver: CVC4, Z3
Publications: "A Decision Procedure for (Co)Datatypes" by Andrew Reynolds and Jasmin Blanchette, CADE 2015.
|)
(set-info :license "https://creativecommons.org/licenses/by/4.0/")
(set-info :category "industrial")
(set-info :status unknown)


(declare-sort A$ 0)
(declare-sort Nat$ 0)
(declare-sort A_set$ 0)
(declare-sort A_bool_fun$ 0)
(declare-sort Num_num_fun$ 0)
(declare-sort A_stream_set$ 0)
(declare-sort Num_bool_fun$ 0)
(declare-sort A_set_a_set_fun$ 0)
(declare-sort A_stream_bool_fun$ 0)
(declare-sort A_stream_stream_set$ 0)
(declare-sort A_stream$ 0)
(declare-fun shd$ (A_stream$) A$)
(declare-fun stl$ (A_stream$) A_stream$)
(declare-fun sCons$ (A$ A_stream$) A_stream$)
(declare-sort Num$ 0)
(declare-fun one$ () Num$)
(declare-fun select$ (Num$) Num$)
(declare-fun bit0$ (Num$) Num$)
(declare-fun selecta$ (Num$) Num$)
(declare-fun bit1$ (Num$) Num$)
(declare-sort A_stream_stream$ 0)
(declare-sort A_stream_stream_stream$ 0)
(declare-sort A_stream_stream_stream_stream$ 0)
(declare-fun shd$a (A_stream_stream$) A_stream$)
(declare-fun stl$a (A_stream_stream$) A_stream_stream$)
(declare-fun sCons$a (A_stream$ A_stream_stream$) A_stream_stream$)
(declare-fun shd$b (A_stream_stream_stream$) A_stream_stream$)
(declare-fun stl$b (A_stream_stream_stream$) A_stream_stream_stream$)
(declare-fun sCons$b (A_stream_stream$ A_stream_stream_stream$) A_stream_stream_stream$)
(declare-fun shd$c (A_stream_stream_stream_stream$) A_stream_stream_stream$)
(declare-fun stl$c (A_stream_stream_stream_stream$) A_stream_stream_stream_stream$)
(declare-fun sCons$c (A_stream_stream_stream$ A_stream_stream_stream_stream$) A_stream_stream_stream_stream$)
(declare-fun n$ () Nat$)
(declare-fun x$ () A$)
(declare-fun s1$ () A_stream$)
(declare-fun s2$ () A_stream$)
(declare-fun uu$ (A_stream_set$) A_stream_bool_fun$)
(declare-fun inc$ (Num$) Num$)
(declare-fun suc$ (Nat$) Nat$)
(declare-fun sup$ (A_set$) A_set_a_set_fun$)
(declare-fun uua$ (A_set$) A_bool_fun$)
(declare-fun bitM$ (Num$) Num$)
(declare-fun one$a () Nat$)
(declare-fun plus$ (Nat$ Nat$) Nat$)
(declare-fun snth$ (A_stream$ Nat$) A$)
(declare-fun sset$ (A_stream$) A_set$)
(declare-fun sup$a (A_stream_set$ A_stream_set$) A_stream_set$)
(declare-fun minus$ (Nat$ Nat$) Nat$)
(declare-fun plus$a (Num$) Num_num_fun$)
(declare-fun snth$a (A_stream_stream_stream$ Nat$) A_stream_stream$)
(declare-fun snth$b (A_stream_stream$ Nat$) A_stream$)
(declare-fun snth$c (A_stream_stream_stream_stream$ Nat$) A_stream_stream_stream$)
(declare-fun sset$a (A_stream_stream_stream$) A_stream_stream_set$)
(declare-fun sset$b (A_stream_stream$) A_stream_set$)
(declare-fun times$ (Nat$ Nat$) Nat$)
(declare-fun member$ (A_stream$ A_stream_set$) Bool)
(declare-fun minus$a (A_set$ A_set$) A_set$)
(declare-fun smerge$ (A_stream_stream_stream_stream$) A_stream_stream_stream$)
(declare-fun times$a (Num$) Num_num_fun$)
(declare-fun uminus$ (A_set$) A_set$)
(declare-fun collect$ (A_bool_fun$) A_set$)
(declare-fun fun_app$ (A_stream_bool_fun$ A_stream$) Bool)
(declare-fun member$a (A$ A_set$) Bool)
(declare-fun member$b (A_stream_stream$ A_stream_stream_set$) Bool)
(declare-fun numeral$ (Num$) Nat$)
(declare-fun smerge$a (A_stream_stream_stream$) A_stream_stream$)
(declare-fun smerge$b (A_stream_stream$) A_stream$)
(declare-fun collect$a (A_stream_bool_fun$) A_stream_set$)
(declare-fun fun_app$a (A_bool_fun$ A$) Bool)
(declare-fun fun_app$b (Num_num_fun$ Num$) Num$)
(declare-fun fun_app$c (A_set_a_set_fun$ A_set$) A_set$)
(declare-fun fun_app$d (Num_bool_fun$ Num$) Bool)
(declare-fun sinterleave$ (A_stream$ A_stream$) A_stream$)
(assert (forall ((?v0 A_stream_set$) (?v1 A_stream$)) (! (= (fun_app$ (uu$ ?v0) ?v1) (member$ ?v1 ?v0)) :pattern ((fun_app$ (uu$ ?v0) ?v1)))))
(assert (forall ((?v0 A_set$) (?v1 A$)) (! (= (fun_app$a (uua$ ?v0) ?v1) (member$a ?v1 ?v0)) :pattern ((fun_app$a (uua$ ?v0) ?v1)))))
(assert (not (= (snth$ (sinterleave$ s1$ s2$) (plus$ (times$ (numeral$ (bit0$ one$)) n$) one$a)) x$)))
(assert (= x$ (snth$ s2$ n$)))
(assert (=> (forall ((?v0 Nat$)) (=> (= x$ (snth$ s2$ ?v0)) false) ) false))
(assert (member$a x$ (sset$ s2$)))
(assert (= (plus$ one$a one$a) (numeral$ (bit0$ one$))))
(assert (forall ((?v0 Num$)) (= (plus$ (numeral$ ?v0) one$a) (numeral$ (fun_app$b (plus$a ?v0) one$))) ))
(assert (forall ((?v0 Num$)) (= (plus$ one$a (numeral$ ?v0)) (numeral$ (fun_app$b (plus$a one$) ?v0))) ))
(assert (forall ((?v0 Num$)) (= (= (numeral$ ?v0) one$a) (= ?v0 one$)) ))
(assert (forall ((?v0 Num$)) (= (= one$a (numeral$ ?v0)) (= one$ ?v0)) ))
(assert (forall ((?v0 Nat$) (?v1 Nat$) (?v2 Num$)) (= (times$ (plus$ ?v0 ?v1) (numeral$ ?v2)) (plus$ (times$ ?v0 (numeral$ ?v2)) (times$ ?v1 (numeral$ ?v2)))) ))
(assert (forall ((?v0 Num$) (?v1 Nat$) (?v2 Nat$)) (= (times$ (numeral$ ?v0) (plus$ ?v1 ?v2)) (plus$ (times$ (numeral$ ?v0) ?v1) (times$ (numeral$ ?v0) ?v2))) ))
(assert (forall ((?v0 Nat$) (?v1 Nat$)) (= (= one$a (times$ ?v0 ?v1)) (and (= ?v0 one$a) (= ?v1 one$a))) ))
(assert (forall ((?v0 Nat$) (?v1 Nat$)) (= (= (times$ ?v0 ?v1) one$a) (and (= ?v0 one$a) (= ?v1 one$a))) ))
(assert (= (plus$ one$a one$a) (numeral$ (bit0$ one$))))
(assert (forall ((?v0 Num$)) (= (= (bit0$ ?v0) one$) false) ))
(assert (forall ((?v0 Num$)) (= (= one$ (bit0$ ?v0)) false) ))
(assert (forall ((?v0 Num$) (?v1 Num$)) (= (= (numeral$ ?v0) (numeral$ ?v1)) (= ?v0 ?v1)) ))
(assert (forall ((?v0 Num$) (?v1 Num$)) (! (= (fun_app$b (times$a (bit0$ ?v0)) (bit0$ ?v1)) (bit0$ (bit0$ (fun_app$b (times$a ?v0) ?v1)))) :pattern ((fun_app$b (times$a (bit0$ ?v0)) (bit0$ ?v1))))))
(assert (forall ((?v0 Num$) (?v1 Num$)) (= (= (bit0$ ?v0) (bit0$ ?v1)) (= ?v0 ?v1)) ))
(assert (forall ((?v0 Num$) (?v1 Num$)) (= (= (bit0$ ?v0) (bit0$ ?v1)) (= ?v0 ?v1)) ))
(assert (forall ((?v0 Num$)) (! (= (fun_app$b (times$a one$) ?v0) ?v0) :pattern ((fun_app$b (times$a one$) ?v0)))))
(assert (forall ((?v0 Num$)) (! (= (fun_app$b (times$a ?v0) one$) ?v0) :pattern ((times$a ?v0)))))
(assert (forall ((?v0 Num$) (?v1 Num$)) (= (times$ (numeral$ ?v0) (numeral$ ?v1)) (numeral$ (fun_app$b (times$a ?v0) ?v1))) ))
(assert (forall ((?v0 Num$) (?v1 Num$) (?v2 Nat$)) (= (times$ (numeral$ ?v0) (times$ (numeral$ ?v1) ?v2)) (times$ (numeral$ (fun_app$b (times$a ?v0) ?v1)) ?v2)) ))
(assert (forall ((?v0 Num$) (?v1 Num$)) (! (= (fun_app$b (plus$a (bit0$ ?v0)) (bit0$ ?v1)) (bit0$ (fun_app$b (plus$a ?v0) ?v1))) :pattern ((fun_app$b (plus$a (bit0$ ?v0)) (bit0$ ?v1))))))
(assert (forall ((?v0 Num$) (?v1 Num$)) (= (plus$ (numeral$ ?v0) (numeral$ ?v1)) (numeral$ (fun_app$b (plus$a ?v0) ?v1))) ))
(assert (forall ((?v0 Num$) (?v1 Num$) (?v2 Nat$)) (= (plus$ (numeral$ ?v0) (plus$ (numeral$ ?v1) ?v2)) (plus$ (numeral$ (fun_app$b (plus$a ?v0) ?v1)) ?v2)) ))
(assert (= (fun_app$b (plus$a one$) one$) (bit0$ one$)))
(assert (member$a x$ (fun_app$c (sup$ (sset$ s1$)) (sset$ s2$))))
(assert (forall ((?v0 Num$)) (! (= (fun_app$b (plus$a one$) ?v0) (fun_app$b (plus$a ?v0) one$)) :pattern ((fun_app$b (plus$a one$) ?v0)))))
(assert (forall ((?v0 A_stream_stream_stream$) (?v1 Nat$)) (member$b (snth$a ?v0 ?v1) (sset$a ?v0)) ))
(assert (forall ((?v0 A_stream_stream$) (?v1 Nat$)) (member$ (snth$b ?v0 ?v1) (sset$b ?v0)) ))
(assert (forall ((?v0 A_stream$) (?v1 Nat$)) (member$a (snth$ ?v0 ?v1) (sset$ ?v0)) ))
(assert (= (= one$ one$) true))
(assert (forall ((?v0 Nat$) (?v1 Nat$) (?v2 Nat$)) (= (= (plus$ ?v0 ?v1) (plus$ ?v0 ?v2)) (= ?v1 ?v2)) ))
(assert (forall ((?v0 Nat$) (?v1 Nat$) (?v2 Nat$)) (= (= (plus$ ?v0 ?v1) (plus$ ?v2 ?v1)) (= ?v0 ?v2)) ))
(assert (forall ((?v0 Num$)) (not (= one$ (bit0$ ?v0))) ))
(assert (forall ((?v0 Nat$) (?v1 Nat$) (?v2 Nat$)) (= (times$ ?v0 (plus$ ?v1 ?v2)) (plus$ (times$ ?v0 ?v1) (times$ ?v0 ?v2))) ))
(assert (forall ((?v0 Nat$) (?v1 Nat$) (?v2 Nat$)) (= (times$ (plus$ ?v0 ?v1) ?v2) (plus$ (times$ ?v0 ?v2) (times$ ?v1 ?v2))) ))
(assert (forall ((?v0 Nat$) (?v1 Nat$) (?v2 Nat$) (?v3 Nat$)) (= (plus$ (times$ ?v0 ?v1) (plus$ (times$ ?v2 ?v1) ?v3)) (plus$ (times$ (plus$ ?v0 ?v2) ?v1) ?v3)) ))
(assert (forall ((?v0 Nat$)) (= (times$ one$a ?v0) ?v0) ))
(assert (forall ((?v0 Nat$)) (= (times$ ?v0 one$a) ?v0) ))
(assert (forall ((?v0 Num$)) (= (plus$ one$a (numeral$ ?v0)) (plus$ (numeral$ ?v0) one$a)) ))
(assert (forall ((?v0 Num$)) (! (= (numeral$ (bit0$ ?v0)) (plus$ (numeral$ ?v0) (numeral$ ?v0))) :pattern ((bit0$ ?v0)))))
(assert (forall ((?v0 Nat$)) (= (times$ ?v0 (numeral$ one$)) ?v0) ))
(assert (forall ((?v0 Nat$)) (= (times$ (numeral$ one$) ?v0) ?v0) ))
(assert (forall ((?v0 A_bool_fun$) (?v1 A_bool_fun$)) (=> (forall ((?v2 A$)) (= (fun_app$a ?v0 ?v2) (fun_app$a ?v1 ?v2)) ) (= (collect$ ?v0) (collect$ ?v1))) ))
(assert (forall ((?v0 A_stream_set$)) (= (collect$a (uu$ ?v0)) ?v0) ))
(assert (forall ((?v0 A_set$)) (= (collect$ (uua$ ?v0)) ?v0) ))
(assert (forall ((?v0 A_stream$) (?v1 A_stream_bool_fun$)) (= (member$ ?v0 (collect$a ?v1)) (fun_app$ ?v1 ?v0)) ))
(assert (forall ((?v0 A$) (?v1 A_bool_fun$)) (= (member$a ?v0 (collect$ ?v1)) (fun_app$a ?v1 ?v0)) ))
(assert (= (numeral$ one$) one$a))
(assert (= (numeral$ one$) one$a))
(assert (forall ((?v0 Nat$)) (= (times$ ?v0 (numeral$ (bit0$ one$))) (plus$ ?v0 ?v0)) ))
(assert (forall ((?v0 Nat$)) (= (times$ (numeral$ (bit0$ one$)) ?v0) (plus$ ?v0 ?v0)) ))
(assert (forall ((?v0 Nat$)) (= (times$ one$a ?v0) ?v0) ))
(assert (forall ((?v0 Nat$)) (= (times$ ?v0 one$a) ?v0) ))
(assert (forall ((?v0 Nat$) (?v1 Nat$) (?v2 Nat$)) (= (= (plus$ ?v0 ?v1) (plus$ ?v0 ?v2)) (= ?v1 ?v2)) ))
(assert (forall ((?v0 Nat$) (?v1 Nat$) (?v2 Nat$)) (= (= (plus$ ?v0 ?v1) (plus$ ?v2 ?v1)) (= ?v0 ?v2)) ))
(assert (forall ((?v0 A_stream_stream_stream_stream$) (?v1 Nat$) (?v2 Nat$)) (member$b (snth$a (snth$c ?v0 ?v1) ?v2) (sset$a (smerge$ ?v0))) ))
(assert (forall ((?v0 A_stream_stream_stream$) (?v1 Nat$) (?v2 Nat$)) (member$ (snth$b (snth$a ?v0 ?v1) ?v2) (sset$b (smerge$a ?v0))) ))
(assert (forall ((?v0 A_stream_stream$) (?v1 Nat$) (?v2 Nat$)) (member$a (snth$ (snth$b ?v0 ?v1) ?v2) (sset$ (smerge$b ?v0))) ))
(assert (forall ((?v0 Nat$)) (= (times$ one$a ?v0) ?v0) ))
(assert (forall ((?v0 Nat$)) (= (times$ ?v0 one$a) ?v0) ))
(assert (forall ((?v0 Nat$) (?v1 Nat$) (?v2 Nat$) (?v3 Nat$)) (= (and (not (= ?v0 ?v1)) (not (= ?v2 ?v3))) (not (= (plus$ (times$ ?v0 ?v2) (times$ ?v1 ?v3)) (plus$ (times$ ?v0 ?v3) (times$ ?v1 ?v2))))) ))
(assert (forall ((?v0 Nat$) (?v1 Nat$) (?v2 Nat$)) (= (plus$ (plus$ ?v0 ?v1) ?v2) (plus$ ?v0 (plus$ ?v1 ?v2))) ))
(assert (forall ((?v0 Nat$) (?v1 Nat$) (?v2 Nat$)) (= (plus$ (plus$ ?v0 ?v1) ?v2) (plus$ ?v0 (plus$ ?v1 ?v2))) ))
(assert (forall ((?v0 Nat$) (?v1 Nat$) (?v2 Nat$)) (= (plus$ ?v0 (plus$ ?v1 ?v2)) (plus$ ?v1 (plus$ ?v0 ?v2))) ))
(assert (forall ((?v0 Nat$) (?v1 Nat$)) (= (plus$ ?v0 ?v1) (plus$ ?v1 ?v0)) ))
(assert (forall ((?v0 Nat$) (?v1 Nat$) (?v2 Nat$)) (=> (= (plus$ ?v0 ?v1) (plus$ ?v2 ?v1)) (= ?v0 ?v2)) ))
(assert (forall ((?v0 Nat$) (?v1 Nat$) (?v2 Nat$)) (=> (= (plus$ ?v0 ?v1) (plus$ ?v0 ?v2)) (= ?v1 ?v2)) ))
(assert (forall ((?v0 Nat$) (?v1 Nat$) (?v2 Nat$) (?v3 Nat$)) (=> (and (= ?v0 ?v1) (= ?v2 ?v3)) (= (plus$ ?v0 ?v2) (plus$ ?v1 ?v3))) ))
(assert (forall ((?v0 Nat$) (?v1 Nat$) (?v2 Nat$)) (= (times$ (times$ ?v0 ?v1) ?v2) (times$ ?v0 (times$ ?v1 ?v2))) ))
(assert (forall ((?v0 Nat$) (?v1 Nat$) (?v2 Nat$)) (= (times$ (times$ ?v0 ?v1) ?v2) (times$ ?v0 (times$ ?v1 ?v2))) ))
(assert (forall ((?v0 Nat$) (?v1 Nat$) (?v2 Nat$)) (= (times$ ?v0 (times$ ?v1 ?v2)) (times$ ?v1 (times$ ?v0 ?v2))) ))
(assert (forall ((?v0 Nat$) (?v1 Nat$)) (= (times$ ?v0 ?v1) (times$ ?v1 ?v0)) ))
(assert (forall ((?v0 Nat$)) (= (= one$a ?v0) (= ?v0 one$a)) ))
(assert (forall ((?v0 Nat$) (?v1 Nat$) (?v2 Nat$) (?v3 Nat$)) (= (= (plus$ (times$ ?v0 ?v1) (times$ ?v2 ?v3)) (plus$ (times$ ?v0 ?v3) (times$ ?v2 ?v1))) (or (= ?v0 ?v2) (= ?v1 ?v3))) ))
(assert (forall ((?v0 A_stream$) (?v1 A_stream_set$) (?v2 A_stream_set$)) (=> (=> (not (member$ ?v0 ?v1)) (member$ ?v0 ?v2)) (member$ ?v0 (sup$a ?v2 ?v1))) ))
(assert (forall ((?v0 A$) (?v1 A_set$) (?v2 A_set$)) (=> (=> (not (member$a ?v0 ?v1)) (member$a ?v0 ?v2)) (member$a ?v0 (fun_app$c (sup$ ?v2) ?v1))) ))
(assert (forall ((?v0 A_stream$) (?v1 A_stream_set$) (?v2 A_stream_set$)) (= (member$ ?v0 (sup$a ?v1 ?v2)) (or (member$ ?v0 ?v1) (member$ ?v0 ?v2))) ))
(assert (forall ((?v0 A$) (?v1 A_set$) (?v2 A_set$)) (= (member$a ?v0 (fun_app$c (sup$ ?v1) ?v2)) (or (member$a ?v0 ?v1) (member$a ?v0 ?v2))) ))
(assert (forall ((?v0 A_set$)) (! (= (fun_app$c (sup$ ?v0) ?v0) ?v0) :pattern ((sup$ ?v0)))))
(assert (forall ((?v0 A_set$)) (! (= (fun_app$c (sup$ ?v0) ?v0) ?v0) :pattern ((sup$ ?v0)))))
(assert (forall ((?v0 A_set$) (?v1 A_set$)) (= (fun_app$c (sup$ ?v0) (fun_app$c (sup$ ?v0) ?v1)) (fun_app$c (sup$ ?v0) ?v1)) ))
(assert (forall ((?v0 A_set$) (?v1 A_set$)) (= (fun_app$c (sup$ ?v0) (fun_app$c (sup$ ?v0) ?v1)) (fun_app$c (sup$ ?v0) ?v1)) ))
(assert (forall ((?v0 A_set$) (?v1 A_set$)) (= (fun_app$c (sup$ (fun_app$c (sup$ ?v0) ?v1)) ?v1) (fun_app$c (sup$ ?v0) ?v1)) ))
(assert (forall ((?v0 A_set$) (?v1 A_set$) (?v2 A_set$)) (= (fun_app$c (sup$ (fun_app$c (sup$ ?v0) ?v1)) ?v2) (fun_app$c (sup$ ?v0) (fun_app$c (sup$ ?v1) ?v2))) ))
(assert (forall ((?v0 A_set$) (?v1 A_set$) (?v2 A_set$)) (= (fun_app$c (sup$ (fun_app$c (sup$ ?v0) ?v1)) ?v2) (fun_app$c (sup$ ?v0) (fun_app$c (sup$ ?v1) ?v2))) ))
(assert (forall ((?v0 A_set$) (?v1 A_set$) (?v2 A_set$)) (= (fun_app$c (sup$ (fun_app$c (sup$ ?v0) ?v1)) ?v2) (fun_app$c (sup$ ?v0) (fun_app$c (sup$ ?v1) ?v2))) ))
(assert (forall ((?v0 A_set$) (?v1 A_set$) (?v2 A_set$)) (= (fun_app$c (sup$ ?v0) (fun_app$c (sup$ ?v1) ?v2)) (fun_app$c (sup$ ?v1) (fun_app$c (sup$ ?v0) ?v2))) ))
(assert (forall ((?v0 A_set$) (?v1 A_set$) (?v2 A_set$)) (= (fun_app$c (sup$ ?v0) (fun_app$c (sup$ ?v1) ?v2)) (fun_app$c (sup$ ?v1) (fun_app$c (sup$ ?v0) ?v2))) ))
(assert (forall ((?v0 A_set$) (?v1 A_set$) (?v2 A_set$)) (= (fun_app$c (sup$ ?v0) (fun_app$c (sup$ ?v1) ?v2)) (fun_app$c (sup$ ?v1) (fun_app$c (sup$ ?v0) ?v2))) ))
(assert (forall ((?v0 A_set$) (?v1 A_set$)) (= (fun_app$c (sup$ ?v0) (fun_app$c (sup$ ?v0) ?v1)) (fun_app$c (sup$ ?v0) ?v1)) ))
(assert (forall ((?v0 A_set$) (?v1 A_set$)) (= (fun_app$c (sup$ ?v0) ?v1) (fun_app$c (sup$ ?v1) ?v0)) ))
(assert (forall ((?v0 A_set$) (?v1 A_set$)) (= (fun_app$c (sup$ ?v0) ?v1) (fun_app$c (sup$ ?v1) ?v0)) ))
(assert (forall ((?v0 A_set$) (?v1 A_set$)) (= (fun_app$c (sup$ ?v0) ?v1) (fun_app$c (sup$ ?v1) ?v0)) ))
(assert (forall ((?v0 A_stream_set$) (?v1 A_stream_set$) (?v2 A_stream_bool_fun$)) (= (exists ((?v3 A_stream$)) (and (member$ ?v3 (sup$a ?v0 ?v1)) (fun_app$ ?v2 ?v3)) ) (or (exists ((?v3 A_stream$)) (and (member$ ?v3 ?v0) (fun_app$ ?v2 ?v3)) ) (exists ((?v3 A_stream$)) (and (member$ ?v3 ?v1) (fun_app$ ?v2 ?v3)) ))) ))
(assert (forall ((?v0 A_set$) (?v1 A_set$) (?v2 A_bool_fun$)) (= (exists ((?v3 A$)) (and (member$a ?v3 (fun_app$c (sup$ ?v0) ?v1)) (fun_app$a ?v2 ?v3)) ) (or (exists ((?v3 A$)) (and (member$a ?v3 ?v0) (fun_app$a ?v2 ?v3)) ) (exists ((?v3 A$)) (and (member$a ?v3 ?v1) (fun_app$a ?v2 ?v3)) ))) ))
(assert (forall ((?v0 A_stream_set$) (?v1 A_stream_set$) (?v2 A_stream_bool_fun$)) (= (forall ((?v3 A_stream$)) (=> (member$ ?v3 (sup$a ?v0 ?v1)) (fun_app$ ?v2 ?v3)) ) (and (forall ((?v3 A_stream$)) (=> (member$ ?v3 ?v0) (fun_app$ ?v2 ?v3)) ) (forall ((?v3 A_stream$)) (=> (member$ ?v3 ?v1) (fun_app$ ?v2 ?v3)) ))) ))
(assert (forall ((?v0 A_set$) (?v1 A_set$) (?v2 A_bool_fun$)) (= (forall ((?v3 A$)) (=> (member$a ?v3 (fun_app$c (sup$ ?v0) ?v1)) (fun_app$a ?v2 ?v3)) ) (and (forall ((?v3 A$)) (=> (member$a ?v3 ?v0) (fun_app$a ?v2 ?v3)) ) (forall ((?v3 A$)) (=> (member$a ?v3 ?v1) (fun_app$a ?v2 ?v3)) ))) ))
(assert (forall ((?v0 A_set$) (?v1 A_set$) (?v2 A_set$)) (= (fun_app$c (sup$ (fun_app$c (sup$ ?v0) ?v1)) ?v2) (fun_app$c (sup$ ?v0) (fun_app$c (sup$ ?v1) ?v2))) ))
(assert (forall ((?v0 A_set$) (?v1 A_set$) (?v2 A_set$)) (= (fun_app$c (sup$ ?v0) (fun_app$c (sup$ ?v1) ?v2)) (fun_app$c (sup$ ?v1) (fun_app$c (sup$ ?v0) ?v2))) ))
(assert (forall ((?v0 A_set$) (?v1 A_set$)) (= (fun_app$c (sup$ ?v0) (fun_app$c (sup$ ?v0) ?v1)) (fun_app$c (sup$ ?v0) ?v1)) ))
(assert (forall ((?v0 A_set$) (?v1 A_set$)) (= (fun_app$c (sup$ ?v0) ?v1) (fun_app$c (sup$ ?v1) ?v0)) ))
(assert (forall ((?v0 A_set$)) (! (= (fun_app$c (sup$ ?v0) ?v0) ?v0) :pattern ((sup$ ?v0)))))
(assert (forall ((?v0 A_stream$) (?v1 A_stream_set$) (?v2 A_stream_set$)) (=> (and (member$ ?v0 (sup$a ?v1 ?v2)) (and (=> (member$ ?v0 ?v1) false) (=> (member$ ?v0 ?v2) false))) false) ))
(assert (forall ((?v0 A$) (?v1 A_set$) (?v2 A_set$)) (=> (and (member$a ?v0 (fun_app$c (sup$ ?v1) ?v2)) (and (=> (member$a ?v0 ?v1) false) (=> (member$a ?v0 ?v2) false))) false) ))
(assert (forall ((?v0 A_stream$) (?v1 A_stream_set$) (?v2 A_stream_set$)) (=> (member$ ?v0 ?v1) (member$ ?v0 (sup$a ?v2 ?v1))) ))
(assert (forall ((?v0 A$) (?v1 A_set$) (?v2 A_set$)) (=> (member$a ?v0 ?v1) (member$a ?v0 (fun_app$c (sup$ ?v2) ?v1))) ))
(assert (forall ((?v0 A_stream$) (?v1 A_stream_set$) (?v2 A_stream_set$)) (=> (member$ ?v0 ?v1) (member$ ?v0 (sup$a ?v1 ?v2))) ))
(assert (forall ((?v0 A$) (?v1 A_set$) (?v2 A_set$)) (=> (member$a ?v0 ?v1) (member$a ?v0 (fun_app$c (sup$ ?v1) ?v2))) ))
(assert (forall ((?v0 Nat$) (?v1 Nat$) (?v2 Nat$)) (= (times$ ?v0 (plus$ ?v1 ?v2)) (plus$ (times$ ?v0 ?v1) (times$ ?v0 ?v2))) ))
(assert (forall ((?v0 Nat$) (?v1 Nat$) (?v2 Nat$)) (= (times$ (plus$ ?v0 ?v1) ?v2) (plus$ (times$ ?v0 ?v2) (times$ ?v1 ?v2))) ))
(assert (forall ((?v0 Nat$) (?v1 Nat$) (?v2 Nat$) (?v3 Nat$)) (= (plus$ (times$ ?v0 ?v1) (plus$ (times$ ?v2 ?v1) ?v3)) (plus$ (times$ (plus$ ?v0 ?v2) ?v1) ?v3)) ))
(assert (forall ((?v0 Nat$) (?v1 Nat$) (?v2 Nat$)) (= (times$ (plus$ ?v0 ?v1) ?v2) (plus$ (times$ ?v0 ?v2) (times$ ?v1 ?v2))) ))
(assert (= (suc$ one$a) (numeral$ (bit0$ one$))))
(assert (forall ((?v0 Nat$)) (= (plus$ (numeral$ (bit0$ one$)) ?v0) (suc$ (suc$ ?v0))) ))
(assert (forall ((?v0 Nat$)) (= (plus$ ?v0 (numeral$ (bit0$ one$))) (suc$ (suc$ ?v0))) ))
(assert (forall ((?v0 A_set$)) (= (uminus$ (uminus$ ?v0)) ?v0) ))
(assert (forall ((?v0 A_set$) (?v1 A_set$)) (= (= (uminus$ ?v0) (uminus$ ?v1)) (= ?v0 ?v1)) ))
(assert (forall ((?v0 Nat$) (?v1 Nat$)) (= (= (suc$ ?v0) (suc$ ?v1)) (= ?v0 ?v1)) ))
(assert (forall ((?v0 Nat$) (?v1 Nat$)) (= (= (suc$ ?v0) (suc$ ?v1)) (= ?v0 ?v1)) ))
(assert (forall ((?v0 Nat$) (?v1 Nat$)) (! (= (plus$ ?v0 (suc$ ?v1)) (suc$ (plus$ ?v0 ?v1))) :pattern ((plus$ ?v0 (suc$ ?v1))))))
(assert (forall ((?v0 Nat$) (?v1 Nat$)) (! (= (times$ ?v0 (suc$ ?v1)) (plus$ ?v0 (times$ ?v0 ?v1))) :pattern ((times$ ?v0 (suc$ ?v1))))))
(assert (forall ((?v0 Num$)) (= (suc$ (numeral$ ?v0)) (numeral$ (fun_app$b (plus$a ?v0) one$))) ))
(assert (forall ((?v0 Nat$) (?v1 Nat$)) (! (= (plus$ (suc$ ?v0) ?v1) (plus$ ?v0 (suc$ ?v1))) :pattern ((plus$ (suc$ ?v0) ?v1)))))
(assert (forall ((?v0 Nat$) (?v1 Nat$)) (! (= (plus$ (suc$ ?v0) ?v1) (suc$ (plus$ ?v0 ?v1))) :pattern ((plus$ (suc$ ?v0) ?v1)))))
(assert (forall ((?v0 Nat$) (?v1 Nat$) (?v2 Nat$)) (= (= (times$ (suc$ ?v0) ?v1) (times$ (suc$ ?v0) ?v2)) (= ?v1 ?v2)) ))
(assert (forall ((?v0 Nat$)) (not (= ?v0 (suc$ ?v0))) ))
(assert (forall ((?v0 Nat$) (?v1 Nat$)) (=> (= (suc$ ?v0) (suc$ ?v1)) (= ?v0 ?v1)) ))
(assert (forall ((?v0 Nat$) (?v1 Nat$)) (! (= (times$ (suc$ ?v0) ?v1) (plus$ ?v1 (times$ ?v0 ?v1))) :pattern ((times$ (suc$ ?v0) ?v1)))))
(assert (forall ((?v0 Nat$)) (! (= (suc$ ?v0) (plus$ one$a ?v0)) :pattern ((suc$ ?v0)))))
(assert (forall ((?v0 Nat$)) (! (= (suc$ ?v0) (plus$ ?v0 one$a)) :pattern ((suc$ ?v0)))))
(assert (forall ((?v0 Num$) (?v1 Nat$)) (= (suc$ (plus$ (numeral$ ?v0) ?v1)) (plus$ (numeral$ (fun_app$b (plus$a ?v0) one$)) ?v1)) ))
(assert (forall ((?v0 Num_bool_fun$) (?v1 Num$)) (=> (and (fun_app$d ?v0 one$) (forall ((?v2 Num$)) (=> (fun_app$d ?v0 ?v2) (fun_app$d ?v0 (inc$ ?v2))) )) (fun_app$d ?v0 ?v1)) ))
(assert (forall ((?v0 Num$) (?v1 Num$)) (= (fun_app$b (plus$a ?v0) (inc$ ?v1)) (inc$ (fun_app$b (plus$a ?v0) ?v1))) ))
(assert (= (inc$ one$) (bit0$ one$)))
(assert (forall ((?v0 Num$)) (! (= (fun_app$b (plus$a ?v0) one$) (inc$ ?v0)) :pattern ((plus$a ?v0)))))
(assert (forall ((?v0 Num$) (?v1 Num$)) (= (fun_app$b (times$a ?v0) (inc$ ?v1)) (fun_app$b (plus$a (fun_app$b (times$a ?v0) ?v1)) ?v0)) ))
(assert (forall ((?v0 Num$)) (= (numeral$ (inc$ ?v0)) (plus$ (numeral$ ?v0) one$a)) ))
(assert (= (bitM$ one$) one$))
(assert (forall ((?v0 Num$)) (! (= (numeral$ (bit0$ ?v0)) (suc$ (numeral$ (bitM$ ?v0)))) :pattern ((bit0$ ?v0)))))
(assert (forall ((?v0 Num$)) (= (fun_app$b (plus$a one$) (bitM$ ?v0)) (bit0$ ?v0)) ))
(assert (forall ((?v0 Num$)) (= (fun_app$b (plus$a (bitM$ ?v0)) one$) (bit0$ ?v0)) ))
(assert (forall ((?v0 Nat$) (?v1 Nat$)) (! (= (minus$ (suc$ ?v0) (suc$ ?v1)) (minus$ ?v0 ?v1)) :pattern ((minus$ (suc$ ?v0) (suc$ ?v1))))))
(assert (forall ((?v0 Nat$) (?v1 Nat$) (?v2 Nat$)) (= (minus$ (minus$ (suc$ ?v0) ?v1) (suc$ ?v2)) (minus$ (minus$ ?v0 ?v1) ?v2)) ))
(assert (forall ((?v0 Nat$) (?v1 Nat$) (?v2 Nat$)) (= (minus$ (minus$ ?v0 ?v1) ?v2) (minus$ ?v0 (plus$ ?v1 ?v2))) ))
(assert (forall ((?v0 A_set$) (?v1 A_set$)) (= (uminus$ (minus$a ?v0 ?v1)) (fun_app$c (sup$ (uminus$ ?v0)) ?v1)) ))
(assert (forall ((?v0 A_set$) (?v1 A_set$)) (= (fun_app$c (sup$ ?v0) (minus$a ?v1 ?v0)) (fun_app$c (sup$ ?v0) ?v1)) ))
(assert (forall ((?v0 A_set$) (?v1 A_set$)) (= (fun_app$c (sup$ (minus$a ?v0 ?v1)) ?v1) (fun_app$c (sup$ ?v0) ?v1)) ))
(assert (forall ((?v0 Num$) (?v1 Num$)) (= (= (bit1$ ?v0) (bit1$ ?v1)) (= ?v0 ?v1)) ))
(assert (forall ((?v0 Num$) (?v1 Num$)) (= (= (bit1$ ?v0) (bit1$ ?v1)) (= ?v0 ?v1)) ))
(assert (forall ((?v0 Nat$) (?v1 Nat$)) (= (minus$ (plus$ ?v0 ?v1) ?v0) ?v1) ))
(assert (forall ((?v0 Nat$) (?v1 Nat$)) (= (minus$ (plus$ ?v0 ?v1) ?v1) ?v0) ))
(assert (forall ((?v0 Nat$) (?v1 Nat$) (?v2 Nat$)) (= (minus$ (plus$ ?v0 ?v1) (plus$ ?v0 ?v2)) (minus$ ?v1 ?v2)) ))
(assert (forall ((?v0 Nat$) (?v1 Nat$) (?v2 Nat$)) (= (minus$ (plus$ ?v0 ?v1) (plus$ ?v2 ?v1)) (minus$ ?v0 ?v2)) ))
(assert (forall ((?v0 Num$) (?v1 Num$)) (= (= (bit1$ ?v0) (bit0$ ?v1)) false) ))
(assert (forall ((?v0 Num$) (?v1 Num$)) (= (= (bit0$ ?v0) (bit1$ ?v1)) false) ))
(assert (forall ((?v0 Num$)) (= (= one$ (bit1$ ?v0)) false) ))
(assert (forall ((?v0 Num$)) (= (= (bit1$ ?v0) one$) false) ))
(assert (forall ((?v0 Nat$)) (= (minus$ (suc$ ?v0) one$a) ?v0) ))
(assert (forall ((?v0 Num$) (?v1 Num$)) (! (= (fun_app$b (plus$a (bit0$ ?v0)) (bit1$ ?v1)) (bit1$ (fun_app$b (plus$a ?v0) ?v1))) :pattern ((fun_app$b (plus$a (bit0$ ?v0)) (bit1$ ?v1))))))
(check-sat)
(exit)

